p cnf 12 50 
10 -1 8 0
-12 9 -8 0
2 4 -11 0
-11 5 -7 0
10 -8 3 0
7 -10 -5 0
2 3 -8 0
-8 -11 9 0
9 10 -11 0
10 -7 11 0
2 8 -9 0
-9 -11 -5 0
6 -8 -1 0
8 -7 -6 0
11 -8 -6 0
7 -5 6 0
-12 7 -10 0
-12 1 9 0
7 -11 -3 0
-2 -3 12 0
9 10 -3 0
12 -7 10 0
8 -6 7 0
2 11 6 0
7 -6 11 0
8 -10 7 0
6 5 -9 0
-7 5 -10 0
5 -11 -7 0
8 -12 5 0
8 4 10 0
-9 12 5 0
1 8 -10 0
8 -1 -4 0
3 -12 -5 0
4 -9 -10 0
7 2 10 0
-10 -3 5 0
-6 -8 7 0
5 7 9 0
5 6 -12 0
7 4 -12 0
2 5 -8 0
1 4 -9 0
-9 8 -4 0
-7 11 -1 0
-11 7 -6 0
-1 -5 10 0
-11 -4 9 0
-7 1 -8 0
